(set-info :smt-lib-version 2.6)
(set-logic QF_NRA)
(set-info :source |
Generated by: Anastasiia Izycheva, Eva Darulova
Generated on: 2020-09-11
Generator: Pine (using Z3 Python API)
Application: Check inductiveness of a loop invariant
Target solver: Z3

These benchmarks were generated while developing the tool Pine [1], which uses
CVC4/Z3 to check inductiveness of invariants. The work is described in [2].

[1] https://github.com/izycheva/pine
[2] A.Izycheva, E.Darulova, H.Seidl, SAS'20, "Counterexample- and Simulation-Guided Floating-Point Loop Invariant Synthesis"

 Loop:
   u' := u + 0.01 * v
   v' := v + 0.01 * (-0.5 * v - 9.81 * u)

 Input ranges:
   u in [0.0,0.0]
   v in [2.0,3.0]

 Invariant:
   -0.09*u + 1.0*u^2 + 0.04*u*v + 0.12*v^2 <= 1.7
 and
   u in [-1.2,1.3]
   v in [-3.8,3.6]

 Query: Loop and Invariant and not Invariant'
|)
(set-info :license "https://creativecommons.org/licenses/by/4.0/")
(set-info :category "industrial")
(set-info :status unknown)
(declare-fun u! () Real)
(declare-fun v! () Real)
(declare-fun u () Real)
(declare-fun v () Real)
(assert
 (let ((?x112 (+ (* (* (/ 1.0 25.0) u!) v!) (+ (* (* (/ 3.0 25.0) v!) v!) (* (- (/ 9.0 100.0)) u!)))))
 (let (($x227 (and (<= (- (/ 6.0 5.0)) u!) (>= (/ 13.0 10.0) u!) (<= (- (/ 19.0 5.0)) v!) (>= (/ 18.0 5.0) v!))))
 (let (($x256 (not (and $x227 (>= (/ 17.0 10.0) (+ (* (* 1.0 u!) u!) ?x112)) ))))
 (let (($x273 (and (= u! (+ u (* (/ 1.0 100.0) v))) (= v! (+ v (* (/ 1.0 100.0) (- (* (- (/ 1.0 2.0)) v) (* (/ 981.0 100.0) u))))))))
 (let ((?x249 (+ (* (* (/ 1.0 25.0) u) v) (+ (* (* (/ 3.0 25.0) v) v) (* (- (/ 9.0 100.0)) u)))))
 (let (($x285 (and (<= (- (/ 6.0 5.0)) u) (>= (/ 13.0 10.0) u) (<= (- (/ 19.0 5.0)) v) (>= (/ 18.0 5.0) v))))
 (let (($x27 (and $x285 (>= (/ 17.0 10.0) (+ (* (* 1.0 u) u) ?x249)) )))
 (and $x27 $x273 $x256)))))))))
(check-sat)
(exit)
